min: c;

c = 4.11543892283672 * u3_t10_h0 + 3.73618697588348 * u3_t10_h1 + 3.91560039508398 * u3_t4_h2 + 3.91560039508398 * u3_t10_h2 + 2.77995948355383 * u3_t4_h3 + 2.77995948355383 * u3_t10_h3 + 3.1337335728366 * u3_t4_h4 + 3.1337335728366 * u3_t10_h4 + 3.9832313205786 * u3_t4_h5 + 3.9832313205786 * u3_t10_h5 + 4.33005468535888 * u3_t4_h6 + 4.33005468535888 * u3_t10_h6 + 3.69889330587402 * u3_t4_h7 + 3.69889330587402 * u3_t9_h7 + 3.69889330587402 * u3_t10_h7 + 5.61715057384098 * u3_t4_h8 + 5.61715057384098 * u3_t9_h8 + 5.37183747835867 * u3_t4_h9 + 5.37183747835867 * u3_t9_h9 + 5.6818539225781 * u3_t4_h10 + 5.6818539225781 * u3_t6_h10 + 5.6818539225781 * u3_t9_h10 + 3.78844489954937 * u3_t3_h11 + 3.78844489954937 * u3_t4_h11 + 3.78844489954937 * u3_t6_h11 + 3.78844489954937 * u3_t9_h11 + 6.4957334669762 * u3_t3_h12 + 6.4957334669762 * u3_t4_h12 + 6.4957334669762 * u3_t6_h12 + 6.4957334669762 * u3_t9_h12 + 4.60248655012934 * u3_t3_h13 + 4.60248655012934 * u3_t4_h13 + 4.60248655012934 * u3_t5_h13 + 4.60248655012934 * u3_t6_h13 + 4.60248655012934 * u3_t9_h13 + 5.77641880552929 * u3_t3_h14 + 5.77641880552929 * u3_t4_h14 + 5.77641880552929 * u3_t5_h14 + 5.77641880552929 * u3_t6_h14 + 5.77641880552929 * u3_t9_h14 + 6.25928846041428 * u3_t2_h15 + 6.25928846041428 * u3_t3_h15 + 6.25928846041428 * u3_t4_h15 + 6.25928846041428 * u3_t5_h15 + 6.25928846041428 * u3_t6_h15 + 6.25928846041428 * u3_t9_h15 + 5.9116246685878 * u3_t2_h16 + 5.9116246685878 * u3_t4_h16 + 5.9116246685878 * u3_t5_h16 + 5.9116246685878 * u3_t6_h16 + 5.9116246685878 * u3_t9_h16 + 6.07955715418735 * u3_t2_h17 + 6.07955715418735 * u3_t4_h17 + 6.07955715418735 * u3_t6_h17 + 6.07955715418735 * u3_t9_h17 + 6.00095784297819 * u3_t2_h18 + 6.00095784297819 * u3_t6_h18 + 6.00095784297819 * u3_t9_h18 + 5.33718743448045 * u3_t2_h19 + 5.33718743448045 * u3_t9_h19 + 5.08914263657113 * u3_t1_h20 + 5.08914263657113 * u3_t2_h20 + 5.08914263657113 * u3_t8_h20 + 5.08914263657113 * u3_t9_h20 + 5.21132875282879 * u3_t1_h21 + 5.21132875282879 * u3_t2_h21 + 5.21132875282879 * u3_t7_h21 + 5.21132875282879 * u3_t8_h21 + 5.21132875282879 * u3_t9_h21 + 6.04420749805668 * u3_t1_h22 + 6.04420749805668 * u3_t7_h22 + 6.04420749805668 * u3_t8_h22 + 5.82288959604281 * u3_t1_h23 + 5.82288959604281 * u3_t7_h23 + 5.82288959604281 * u3_t8_h23;
0 <= u3_t1_h20 <= 1;
0 <= u3_t1_h21 <= 1;
0 <= u3_t1_h22 <= 1;
0 <= u3_t1_h23 <= 1;
u3_t1_h20 + u3_t1_h21 + u3_t1_h22 + u3_t1_h23 = 2;
0 <= u3_t2_h15 <= 1;
0 <= u3_t2_h16 <= 1;
0 <= u3_t2_h17 <= 1;
0 <= u3_t2_h18 <= 1;
0 <= u3_t2_h19 <= 1;
0 <= u3_t2_h20 <= 1;
0 <= u3_t2_h21 <= 1;
u3_t2_h15 + u3_t2_h16 + u3_t2_h17 + u3_t2_h18 + u3_t2_h19 + u3_t2_h20 + u3_t2_h21 = 3;
0 <= u3_t3_h11 <= 1;
0 <= u3_t3_h12 <= 1;
0 <= u3_t3_h13 <= 1;
0 <= u3_t3_h14 <= 1;
0 <= u3_t3_h15 <= 1;
u3_t3_h11 + u3_t3_h12 + u3_t3_h13 + u3_t3_h14 + u3_t3_h15 = 2;
0 <= u3_t4_h2 <= 1;
0 <= u3_t4_h3 <= 1;
0 <= u3_t4_h4 <= 1;
0 <= u3_t4_h5 <= 1;
0 <= u3_t4_h6 <= 1;
0 <= u3_t4_h7 <= 1;
0 <= u3_t4_h8 <= 1;
0 <= u3_t4_h9 <= 1;
0 <= u3_t4_h10 <= 1;
0 <= u3_t4_h11 <= 1;
0 <= u3_t4_h12 <= 1;
0 <= u3_t4_h13 <= 1;
0 <= u3_t4_h14 <= 1;
0 <= u3_t4_h15 <= 1;
0 <= u3_t4_h16 <= 1;
0 <= u3_t4_h17 <= 1;
u3_t4_h2 + u3_t4_h3 + u3_t4_h4 + u3_t4_h5 + u3_t4_h6 + u3_t4_h7 + u3_t4_h8 + u3_t4_h9 + u3_t4_h10 + u3_t4_h11 + u3_t4_h12 + u3_t4_h13 + u3_t4_h14 + u3_t4_h15 + u3_t4_h16 + u3_t4_h17 = 3;
0 <= u3_t5_h13 <= 1;
0 <= u3_t5_h14 <= 1;
0 <= u3_t5_h15 <= 1;
0 <= u3_t5_h16 <= 1;
u3_t5_h13 + u3_t5_h14 + u3_t5_h15 + u3_t5_h16 = 2;
0 <= u3_t6_h10 <= 1;
0 <= u3_t6_h11 <= 1;
0 <= u3_t6_h12 <= 1;
0 <= u3_t6_h13 <= 1;
0 <= u3_t6_h14 <= 1;
0 <= u3_t6_h15 <= 1;
0 <= u3_t6_h16 <= 1;
0 <= u3_t6_h17 <= 1;
0 <= u3_t6_h18 <= 1;
u3_t6_h10 + u3_t6_h11 + u3_t6_h12 + u3_t6_h13 + u3_t6_h14 + u3_t6_h15 + u3_t6_h16 + u3_t6_h17 + u3_t6_h18 = 2;
0 <= u3_t7_h21 <= 1;
0 <= u3_t7_h22 <= 1;
0 <= u3_t7_h23 <= 1;
u3_t7_h21 + u3_t7_h22 + u3_t7_h23 = 2;
0 <= u3_t8_h20 <= 1;
0 <= u3_t8_h21 <= 1;
0 <= u3_t8_h22 <= 1;
0 <= u3_t8_h23 <= 1;
u3_t8_h20 + u3_t8_h21 + u3_t8_h22 + u3_t8_h23 = 1;
0 <= u3_t9_h7 <= 1;
0 <= u3_t9_h8 <= 1;
0 <= u3_t9_h9 <= 1;
0 <= u3_t9_h10 <= 1;
0 <= u3_t9_h11 <= 1;
0 <= u3_t9_h12 <= 1;
0 <= u3_t9_h13 <= 1;
0 <= u3_t9_h14 <= 1;
0 <= u3_t9_h15 <= 1;
0 <= u3_t9_h16 <= 1;
0 <= u3_t9_h17 <= 1;
0 <= u3_t9_h18 <= 1;
0 <= u3_t9_h19 <= 1;
0 <= u3_t9_h20 <= 1;
0 <= u3_t9_h21 <= 1;
u3_t9_h7 + u3_t9_h8 + u3_t9_h9 + u3_t9_h10 + u3_t9_h11 + u3_t9_h12 + u3_t9_h13 + u3_t9_h14 + u3_t9_h15 + u3_t9_h16 + u3_t9_h17 + u3_t9_h18 + u3_t9_h19 + u3_t9_h20 + u3_t9_h21 = 2;
0 <= u3_t10_h0 <= 1;
0 <= u3_t10_h1 <= 1;
0 <= u3_t10_h2 <= 1;
0 <= u3_t10_h3 <= 1;
0 <= u3_t10_h4 <= 1;
0 <= u3_t10_h5 <= 1;
0 <= u3_t10_h6 <= 1;
0 <= u3_t10_h7 <= 1;
u3_t10_h0 + u3_t10_h1 + u3_t10_h2 + u3_t10_h3 + u3_t10_h4 + u3_t10_h5 + u3_t10_h6 + u3_t10_h7 = 3;
